1600 3120
1 2 5
1 41 5
2 3 4
2 42 1
3 4 2
3 43 5
4 5 2
4 44 2
5 6 1
5 45 5
6 7 1
6 46 2
7 8 2
7 47 2
8 9 5
8 48 4
9 10 5
9 49 3
10 11 5
10 50 1
11 12 5
11 51 5
12 13 2
12 52 1
13 14 2
13 53 2
14 15 1
14 54 5
15 16 3
15 55 4
16 17 4
16 56 4
17 18 2
17 57 1
18 19 5
18 58 2
19 20 5
19 59 3
20 21 4
20 60 2
21 22 5
21 61 5
22 23 3
22 62 3
23 24 1
23 63 1
24 25 3
24 64 3
25 26 2
25 65 5
26 27 3
26 66 4
27 28 4
27 67 2
28 29 4
28 68 2
29 30 3
29 69 2
30 31 4
30 70 3
31 32 1
31 71 1
32 33 2
32 72 2
33 34 3
33 73 2
34 35 2
34 74 3
35 36 3
35 75 1
36 37 4
36 76 2
37 38 5
37 77 4
38 39 4
38 78 2
39 40 2
39 79 1
40 80 5
41 42 1
41 81 2
42 43 4
42 82 1
43 44 2
43 83 1
44 45 4
44 84 5
45 46 4
45 85 1
46 47 3
46 86 2
47 48 2
47 87 5
48 49 1
48 88 3
49 50 3
49 89 1
50 51 3
50 90 1
51 52 1
51 91 5
52 53 1
52 92 1
53 54 5
53 93 3
54 55 4
54 94 4
55 56 1
55 95 4
56 57 5
56 96 2
57 58 4
57 97 1
58 59 4
58 98 2
59 60 1
59 99 2
60 61 4
60 100 4
61 62 4
61 101 2
62 63 3
62 102 2
63 64 1
63 103 1
64 65 2
64 104 3
65 66 4
65 105 3
66 67 5
66 106 2
67 68 4
67 107 3
68 69 3
68 108 4
69 70 1
69 109 3
70 71 5
70 110 4
71 72 3
71 111 3
72 73 2
72 112 2
73 74 3
73 113 3
74 75 1
74 114 3
75 76 3
75 115 2
76 77 1
76 116 4
77 78 2
77 117 4
78 79 1
78 118 5
79 80 1
79 119 5
80 120 2
81 82 4
81 121 1
82 83 3
82 122 4
83 84 5
83 123 2
84 85 2
84 124 3
85 86 3
85 125 4
86 87 1
86 126 2
87 88 1
87 127 1
88 89 2
88 128 1
89 90 1
89 129 3
90 91 3
90 130 5
91 92 2
91 131 3
92 93 3
92 132 4
93 94 3
93 133 4
94 95 1
94 134 4
95 96 3
95 135 2
96 97 4
96 136 5
97 98 1
97 137 1
98 99 2
98 138 5
99 100 5
99 139 4
100 101 4
100 140 2
101 102 5
101 141 3
102 103 3
102 142 1
103 104 5
103 143 2
104 105 5
104 144 4
105 106 5
105 145 1
106 107 4
106 146 2
107 108 1
107 147 5
108 109 4
108 148 2
109 110 1
109 149 4
110 111 4
110 150 4
111 112 2
111 151 5
112 113 3
112 152 4
113 114 5
113 153 1
114 115 4
114 154 2
115 116 2
115 155 2
116 117 1
116 156 5
117 118 4
117 157 5
118 119 3
118 158 2
119 120 2
119 159 2
120 160 3
121 122 3
121 161 4
122 123 5
122 162 3
123 124 4
123 163 2
124 125 2
124 164 1
125 126 1
125 165 2
126 127 4
126 166 4
127 128 5
127 167 2
128 129 4
128 168 4
129 130 2
129 169 3
130 131 3
130 170 4
131 132 2
131 171 5
132 133 5
132 172 3
133 134 3
133 173 1
134 135 2
134 174 3
135 136 1
135 175 2
136 137 1
136 176 2
137 138 5
137 177 5
138 139 5
138 178 2
139 140 5
139 179 1
140 141 1
140 180 3
141 142 1
141 181 4
142 143 1
142 182 3
143 144 1
143 183 4
144 145 4
144 184 4
145 146 3
145 185 4
146 147 5
146 186 3
147 148 5
147 187 2
148 149 1
148 188 1
149 150 3
149 189 3
150 151 2
150 190 2
151 152 3
151 191 4
152 153 2
152 192 1
153 154 5
153 193 3
154 155 4
154 194 5
155 156 2
155 195 2
156 157 5
156 196 3
157 158 1
157 197 1
158 159 5
158 198 4
159 160 2
159 199 2
160 200 5
161 162 5
161 201 3
162 163 1
162 202 5
163 164 4
163 203 4
164 165 4
164 204 5
165 166 5
165 205 1
166 167 4
166 206 2
167 168 2
167 207 2
168 169 1
168 208 5
169 170 4
169 209 4
170 171 5
170 210 4
171 172 5
171 211 2
172 173 5
172 212 3
173 174 1
173 213 5
174 175 1
174 214 4
175 176 4
175 215 4
176 177 1
176 216 5
177 178 2
177 217 3
178 179 2
178 218 4
179 180 1
179 219 5
180 181 4
180 220 5
181 182 5
181 221 4
182 183 1
182 222 4
183 184 5
183 223 3
184 185 4
184 224 4
185 186 4
185 225 5
186 187 5
186 226 2
187 188 5
187 227 3
188 189 1
188 228 1
189 190 2
189 229 5
190 191 3
190 230 4
191 192 1
191 231 3
192 193 5
192 232 2
193 194 2
193 233 3
194 195 3
194 234 3
195 196 5
195 235 5
196 197 1
196 236 4
197 198 3
197 237 3
198 199 3
198 238 4
199 200 1
199 239 4
200 240 5
201 202 2
201 241 5
202 203 3
202 242 2
203 204 3
203 243 4
204 205 2
204 244 4
205 206 1
205 245 5
206 207 2
206 246 5
207 208 2
207 247 5
208 209 5
208 248 2
209 210 3
209 249 4
210 211 5
210 250 2
211 212 1
211 251 5
212 213 5
212 252 3
213 214 2
213 253 5
214 215 4
214 254 1
215 216 1
215 255 2
216 217 4
216 256 3
217 218 3
217 257 4
218 219 2
218 258 3
219 220 3
219 259 4
220 221 3
220 260 2
221 222 1
221 261 2
222 223 4
222 262 5
223 224 4
223 263 1
224 225 5
224 264 4
225 226 1
225 265 4
226 227 5
226 266 5
227 228 4
227 267 2
228 229 3
228 268 2
229 230 2
229 269 3
230 231 5
230 270 2
231 232 5
231 271 2
232 233 4
232 272 3
233 234 4
233 273 1
234 235 2
234 274 5
235 236 1
235 275 5
236 237 3
236 276 3
237 238 3
237 277 2
238 239 1
238 278 4
239 240 3
239 279 4
240 280 2
241 242 4
241 281 3
242 243 1
242 282 1
243 244 4
243 283 1
244 245 4
244 284 5
245 246 3
245 285 2
246 247 4
246 286 2
247 248 2
247 287 4
248 249 4
248 288 2
249 250 5
249 289 1
250 251 2
250 290 3
251 252 5
251 291 5
252 253 2
252 292 5
253 254 5
253 293 4
254 255 4
254 294 4
255 256 1
255 295 5
256 257 2
256 296 4
257 258 3
257 297 4
258 259 3
258 298 3
259 260 2
259 299 4
260 261 5
260 300 2
261 262 4
261 301 3
262 263 1
262 302 3
263 264 1
263 303 4
264 265 5
264 304 1
265 266 5
265 305 4
266 267 2
266 306 4
267 268 2
267 307 1
268 269 1
268 308 4
269 270 3
269 309 4
270 271 2
270 310 2
271 272 4
271 311 3
272 273 1
272 312 2
273 274 4
273 313 1
274 275 4
274 314 1
275 276 2
275 315 4
276 277 2
276 316 5
277 278 5
277 317 3
278 279 3
278 318 5
279 280 5
279 319 4
280 320 2
281 282 4
281 321 2
282 283 4
282 322 4
283 284 1
283 323 2
284 285 2
284 324 2
285 286 5
285 325 1
286 287 1
286 326 1
287 288 2
287 327 4
288 289 2
288 328 5
289 290 2
289 329 3
290 291 2
290 330 5
291 292 2
291 331 1
292 293 4
292 332 1
293 294 1
293 333 1
294 295 3
294 334 4
295 296 1
295 335 5
296 297 1
296 336 1
297 298 2
297 337 1
298 299 1
298 338 1
299 300 1
299 339 3
300 301 1
300 340 3
301 302 3
301 341 4
302 303 1
302 342 4
303 304 2
303 343 1
304 305 1
304 344 2
305 306 2
305 345 2
306 307 4
306 346 1
307 308 2
307 347 2
308 309 1
308 348 3
309 310 4
309 349 4
310 311 1
310 350 1
311 312 5
311 351 4
312 313 3
312 352 1
313 314 3
313 353 4
314 315 2
314 354 1
315 316 3
315 355 3
316 317 5
316 356 2
317 318 4
317 357 2
318 319 5
318 358 2
319 320 1
319 359 2
320 360 1
321 322 3
321 361 5
322 323 4
322 362 2
323 324 2
323 363 4
324 325 2
324 364 1
325 326 2
325 365 3
326 327 3
326 366 5
327 328 2
327 367 2
328 329 1
328 368 5
329 330 3
329 369 1
330 331 4
330 370 3
331 332 1
331 371 2
332 333 1
332 372 5
333 334 5
333 373 2
334 335 4
334 374 1
335 336 1
335 375 3
336 337 4
336 376 2
337 338 5
337 377 2
338 339 1
338 378 2
339 340 4
339 379 5
340 341 1
340 380 3
341 342 5
341 381 5
342 343 5
342 382 4
343 344 4
343 383 1
344 345 3
344 384 3
345 346 4
345 385 5
346 347 2
346 386 1
347 348 2
347 387 2
348 349 1
348 388 1
349 350 5
349 389 1
350 351 5
350 390 3
351 352 4
351 391 4
352 353 2
352 392 5
353 354 4
353 393 1
354 355 5
354 394 3
355 356 2
355 395 4
356 357 2
356 396 5
357 358 1
357 397 5
358 359 3
358 398 1
359 360 1
359 399 4
360 400 5
361 362 3
361 401 5
362 363 4
362 402 5
363 364 4
363 403 5
364 365 5
364 404 1
365 366 1
365 405 4
366 367 4
366 406 3
367 368 5
367 407 1
368 369 1
368 408 5
369 370 4
369 409 3
370 371 2
370 410 1
371 372 3
371 411 4
372 373 3
372 412 2
373 374 1
373 413 5
374 375 3
374 414 3
375 376 4
375 415 2
376 377 2
376 416 3
377 378 1
377 417 5
378 379 2
378 418 2
379 380 5
379 419 4
380 381 3
380 420 2
381 382 1
381 421 3
382 383 4
382 422 2
383 384 5
383 423 5
384 385 3
384 424 1
385 386 5
385 425 4
386 387 1
386 426 3
387 388 1
387 427 4
388 389 5
388 428 1
389 390 5
389 429 5
390 391 3
390 430 5
391 392 4
391 431 3
392 393 2
392 432 3
393 394 4
393 433 1
394 395 5
394 434 2
395 396 5
395 435 3
396 397 5
396 436 2
397 398 5
397 437 4
398 399 3
398 438 4
399 400 5
399 439 2
400 440 2
401 402 5
401 441 5
402 403 4
402 442 1
403 404 2
403 443 1
404 405 4
404 444 2
405 406 3
405 445 4
406 407 4
406 446 4
407 408 1
407 447 4
408 409 1
408 448 1
409 410 5
409 449 5
410 411 3
410 450 3
411 412 3
411 451 1
412 413 4
412 452 5
413 414 4
413 453 3
414 415 1
414 454 3
415 416 5
415 455 4
416 417 3
416 456 2
417 418 3
417 457 2
418 419 5
418 458 1
419 420 1
419 459 4
420 421 4
420 460 4
421 422 1
421 461 1
422 423 5
422 462 1
423 424 1
423 463 3
424 425 4
424 464 4
425 426 3
425 465 3
426 427 5
426 466 5
427 428 4
427 467 1
428 429 5
428 468 1
429 430 2
429 469 3
430 431 4
430 470 2
431 432 2
431 471 3
432 433 3
432 472 4
433 434 1
433 473 1
434 435 2
434 474 2
435 436 5
435 475 2
436 437 5
436 476 5
437 438 1
437 477 5
438 439 4
438 478 5
439 440 1
439 479 3
440 480 4
441 442 3
441 481 2
442 443 3
442 482 4
443 444 5
443 483 2
444 445 2
444 484 3
445 446 2
445 485 4
446 447 3
446 486 2
447 448 1
447 487 4
448 449 5
448 488 4
449 450 5
449 489 5
450 451 2
450 490 3
451 452 1
451 491 4
452 453 5
452 492 1
453 454 2
453 493 1
454 455 4
454 494 3
455 456 2
455 495 2
456 457 3
456 496 5
457 458 2
457 497 2
458 459 1
458 498 4
459 460 2
459 499 1
460 461 3
460 500 5
461 462 1
461 501 1
462 463 4
462 502 5
463 464 1
463 503 2
464 465 5
464 504 4
465 466 1
465 505 4
466 467 5
466 506 5
467 468 4
467 507 3
468 469 5
468 508 4
469 470 3
469 509 4
470 471 5
470 510 3
471 472 1
471 511 1
472 473 3
472 512 2
473 474 1
473 513 2
474 475 3
474 514 5
475 476 5
475 515 3
476 477 2
476 516 2
477 478 2
477 517 2
478 479 3
478 518 4
479 480 3
479 519 1
480 520 3
481 482 3
481 521 5
482 483 2
482 522 4
483 484 4
483 523 4
484 485 3
484 524 5
485 486 1
485 525 1
486 487 2
486 526 2
487 488 5
487 527 1
488 489 5
488 528 4
489 490 5
489 529 3
490 491 5
490 530 1
491 492 1
491 531 4
492 493 1
492 532 3
493 494 3
493 533 5
494 495 2
494 534 1
495 496 1
495 535 5
496 497 5
496 536 5
497 498 1
497 537 4
498 499 5
498 538 5
499 500 1
499 539 1
500 501 2
500 540 2
501 502 3
501 541 1
502 503 5
502 542 5
503 504 1
503 543 1
504 505 1
504 544 4
505 506 2
505 545 5
506 507 2
506 546 3
507 508 2
507 547 4
508 509 3
508 548 5
509 510 3
509 549 2
510 511 3
510 550 4
511 512 3
511 551 5
512 513 3
512 552 1
513 514 3
513 553 3
514 515 2
514 554 3
515 516 4
515 555 3
516 517 1
516 556 2
517 518 5
517 557 5
518 519 4
518 558 1
519 520 3
519 559 4
520 560 5
521 522 3
521 561 5
522 523 4
522 562 1
523 524 4
523 563 5
524 525 2
524 564 3
525 526 5
525 565 1
526 527 3
526 566 3
527 528 1
527 567 5
528 529 2
528 568 4
529 530 3
529 569 4
530 531 1
530 570 5
531 532 5
531 571 5
532 533 2
532 572 3
533 534 4
533 573 1
534 535 1
534 574 1
535 536 1
535 575 5
536 537 5
536 576 5
537 538 3
537 577 2
538 539 2
538 578 5
539 540 3
539 579 2
540 541 3
540 580 4
541 542 3
541 581 4
542 543 1
542 582 4
543 544 5
543 583 1
544 545 3
544 584 2
545 546 4
545 585 2
546 547 5
546 586 5
547 548 3
547 587 2
548 549 3
548 588 1
549 550 1
549 589 3
550 551 5
550 590 5
551 552 2
551 591 5
552 553 1
552 592 3
553 554 2
553 593 1
554 555 1
554 594 1
555 556 1
555 595 1
556 557 1
556 596 1
557 558 1
557 597 5
558 559 5
558 598 5
559 560 3
559 599 4
560 600 4
561 562 4
561 601 5
562 563 4
562 602 3
563 564 4
563 603 1
564 565 5
564 604 4
565 566 5
565 605 4
566 567 3
566 606 1
567 568 2
567 607 5
568 569 3
568 608 2
569 570 1
569 609 1
570 571 5
570 610 1
571 572 4
571 611 5
572 573 4
572 612 3
573 574 1
573 613 5
574 575 1
574 614 3
575 576 4
575 615 4
576 577 2
576 616 5
577 578 3
577 617 5
578 579 5
578 618 5
579 580 4
579 619 3
580 581 4
580 620 1
581 582 3
581 621 1
582 583 3
582 622 1
583 584 2
583 623 2
584 585 3
584 624 3
585 586 5
585 625 3
586 587 5
586 626 5
587 588 4
587 627 5
588 589 1
588 628 3
589 590 3
589 629 5
590 591 4
590 630 5
591 592 1
591 631 3
592 593 3
592 632 4
593 594 3
593 633 3
594 595 4
594 634 3
595 596 4
595 635 1
596 597 5
596 636 1
597 598 2
597 637 5
598 599 4
598 638 3
599 600 4
599 639 1
600 640 3
601 602 1
601 641 2
602 603 1
602 642 5
603 604 5
603 643 3
604 605 5
604 644 1
605 606 4
605 645 1
606 607 5
606 646 2
607 608 4
607 647 1
608 609 1
608 648 2
609 610 4
609 649 3
610 611 4
610 650 3
611 612 2
611 651 2
612 613 4
612 652 4
613 614 4
613 653 4
614 615 3
614 654 3
615 616 1
615 655 2
616 617 5
616 656 1
617 618 5
617 657 3
618 619 3
618 658 3
619 620 3
619 659 5
620 621 1
620 660 3
621 622 4
621 661 3
622 623 4
622 662 2
623 624 4
623 663 4
624 625 3
624 664 4
625 626 5
625 665 3
626 627 2
626 666 5
627 628 2
627 667 1
628 629 3
628 668 5
629 630 5
629 669 5
630 631 5
630 670 1
631 632 4
631 671 5
632 633 3
632 672 4
633 634 3
633 673 4
634 635 1
634 674 4
635 636 4
635 675 5
636 637 5
636 676 5
637 638 1
637 677 5
638 639 1
638 678 5
639 640 5
639 679 5
640 680 4
641 642 1
641 681 3
642 643 1
642 682 2
643 644 5
643 683 1
644 645 2
644 684 4
645 646 5
645 685 1
646 647 2
646 686 2
647 648 3
647 687 4
648 649 3
648 688 5
649 650 4
649 689 4
650 651 1
650 690 5
651 652 2
651 691 5
652 653 3
652 692 2
653 654 1
653 693 4
654 655 3
654 694 2
655 656 2
655 695 1
656 657 5
656 696 5
657 658 4
657 697 4
658 659 4
658 698 2
659 660 4
659 699 4
660 661 3
660 700 3
661 662 2
661 701 4
662 663 4
662 702 4
663 664 3
663 703 4
664 665 1
664 704 3
665 666 1
665 705 1
666 667 2
666 706 2
667 668 4
667 707 5
668 669 3
668 708 5
669 670 2
669 709 5
670 671 3
670 710 2
671 672 4
671 711 3
672 673 4
672 712 5
673 674 2
673 713 3
674 675 2
674 714 5
675 676 3
675 715 1
676 677 2
676 716 2
677 678 5
677 717 2
678 679 2
678 718 5
679 680 3
679 719 1
680 720 2
681 682 1
681 721 3
682 683 1
682 722 4
683 684 2
683 723 3
684 685 2
684 724 4
685 686 2
685 725 4
686 687 3
686 726 3
687 688 2
687 727 5
688 689 2
688 728 4
689 690 3
689 729 5
690 691 4
690 730 2
691 692 4
691 731 1
692 693 4
692 732 3
693 694 4
693 733 1
694 695 2
694 734 4
695 696 3
695 735 1
696 697 1
696 736 3
697 698 2
697 737 1
698 699 4
698 738 3
699 700 5
699 739 1
700 701 3
700 740 1
701 702 3
701 741 1
702 703 1
702 742 1
703 704 2
703 743 3
704 705 1
704 744 3
705 706 4
705 745 5
706 707 3
706 746 2
707 708 2
707 747 2
708 709 2
708 748 2
709 710 2
709 749 3
710 711 5
710 750 2
711 712 4
711 751 2
712 713 5
712 752 1
713 714 2
713 753 1
714 715 1
714 754 2
715 716 3
715 755 2
716 717 1
716 756 3
717 718 5
717 757 4
718 719 1
718 758 1
719 720 1
719 759 4
720 760 1
721 722 4
721 761 5
722 723 3
722 762 2
723 724 1
723 763 5
724 725 3
724 764 3
725 726 4
725 765 5
726 727 1
726 766 5
727 728 1
727 767 1
728 729 5
728 768 5
729 730 5
729 769 1
730 731 2
730 770 2
731 732 1
731 771 2
732 733 3
732 772 4
733 734 1
733 773 3
734 735 5
734 774 3
735 736 3
735 775 5
736 737 2
736 776 5
737 738 4
737 777 5
738 739 3
738 778 5
739 740 4
739 779 1
740 741 3
740 780 1
741 742 3
741 781 1
742 743 2
742 782 2
743 744 4
743 783 5
744 745 5
744 784 5
745 746 4
745 785 4
746 747 2
746 786 3
747 748 5
747 787 3
748 749 5
748 788 4
749 750 3
749 789 1
750 751 5
750 790 3
751 752 5
751 791 4
752 753 3
752 792 1
753 754 4
753 793 5
754 755 5
754 794 3
755 756 1
755 795 3
756 757 3
756 796 2
757 758 3
757 797 3
758 759 5
758 798 3
759 760 1
759 799 3
760 800 2
761 762 2
761 801 1
762 763 1
762 802 1
763 764 2
763 803 3
764 765 1
764 804 2
765 766 5
765 805 4
766 767 3
766 806 2
767 768 5
767 807 1
768 769 5
768 808 3
769 770 5
769 809 1
770 771 1
770 810 2
771 772 3
771 811 2
772 773 4
772 812 1
773 774 4
773 813 5
774 775 3
774 814 3
775 776 5
775 815 4
776 777 2
776 816 3
777 778 4
777 817 4
778 779 4
778 818 4
779 780 1
779 819 2
780 781 2
780 820 4
781 782 2
781 821 2
782 783 5
782 822 3
783 784 1
783 823 2
784 785 5
784 824 4
785 786 5
785 825 1
786 787 5
786 826 3
787 788 1
787 827 2
788 789 2
788 828 4
789 790 5
789 829 3
790 791 1
790 830 5
791 792 4
791 831 5
792 793 2
792 832 2
793 794 1
793 833 1
794 795 5
794 834 5
795 796 5
795 835 1
796 797 2
796 836 4
797 798 2
797 837 2
798 799 1
798 838 3
799 800 1
799 839 4
800 840 4
801 802 4
801 841 5
802 803 5
802 842 2
803 804 2
803 843 3
804 805 5
804 844 5
805 806 1
805 845 3
806 807 2
806 846 1
807 808 4
807 847 3
808 809 4
808 848 4
809 810 5
809 849 5
810 811 3
810 850 1
811 812 2
811 851 5
812 813 2
812 852 1
813 814 2
813 853 3
814 815 2
814 854 5
815 816 5
815 855 1
816 817 4
816 856 3
817 818 4
817 857 2
818 819 1
818 858 5
819 820 1
819 859 5
820 821 2
820 860 2
821 822 1
821 861 1
822 823 1
822 862 5
823 824 4
823 863 3
824 825 1
824 864 1
825 826 2
825 865 4
826 827 4
826 866 1
827 828 5
827 867 3
828 829 2
828 868 4
829 830 1
829 869 4
830 831 4
830 870 1
831 832 4
831 871 3
832 833 4
832 872 1
833 834 4
833 873 3
834 835 3
834 874 2
835 836 3
835 875 5
836 837 3
836 876 2
837 838 5
837 877 1
838 839 2
838 878 1
839 840 1
839 879 2
840 880 2
841 842 5
841 881 2
842 843 1
842 882 5
843 844 5
843 883 1
844 845 4
844 884 3
845 846 3
845 885 4
846 847 5
846 886 5
847 848 2
847 887 1
848 849 5
848 888 4
849 850 4
849 889 1
850 851 1
850 890 2
851 852 3
851 891 2
852 853 1
852 892 1
853 854 1
853 893 1
854 855 3
854 894 3
855 856 4
855 895 4
856 857 3
856 896 1
857 858 5
857 897 1
858 859 3
858 898 2
859 860 1
859 899 3
860 861 2
860 900 1
861 862 3
861 901 3
862 863 1
862 902 1
863 864 2
863 903 5
864 865 3
864 904 4
865 866 5
865 905 5
866 867 5
866 906 5
867 868 3
867 907 3
868 869 5
868 908 4
869 870 1
869 909 1
870 871 4
870 910 5
871 872 5
871 911 5
872 873 3
872 912 3
873 874 3
873 913 5
874 875 5
874 914 2
875 876 1
875 915 2
876 877 2
876 916 1
877 878 1
877 917 1
878 879 5
878 918 1
879 880 5
879 919 3
880 920 4
881 882 4
881 921 1
882 883 1
882 922 1
883 884 1
883 923 3
884 885 4
884 924 5
885 886 3
885 925 2
886 887 3
886 926 1
887 888 5
887 927 2
888 889 2
888 928 2
889 890 2
889 929 1
890 891 1
890 930 3
891 892 1
891 931 1
892 893 4
892 932 2
893 894 5
893 933 5
894 895 1
894 934 1
895 896 4
895 935 4
896 897 5
896 936 3
897 898 5
897 937 3
898 899 4
898 938 5
899 900 4
899 939 1
900 901 4
900 940 1
901 902 1
901 941 5
902 903 2
902 942 5
903 904 1
903 943 2
904 905 4
904 944 2
905 906 1
905 945 3
906 907 4
906 946 3
907 908 5
907 947 5
908 909 2
908 948 4
909 910 3
909 949 5
910 911 5
910 950 3
911 912 5
911 951 2
912 913 4
912 952 5
913 914 5
913 953 5
914 915 2
914 954 3
915 916 3
915 955 5
916 917 3
916 956 4
917 918 3
917 957 5
918 919 2
918 958 3
919 920 3
919 959 4
920 960 5
921 922 1
921 961 1
922 923 2
922 962 3
923 924 2
923 963 1
924 925 2
924 964 1
925 926 2
925 965 4
926 927 3
926 966 2
927 928 3
927 967 1
928 929 2
928 968 2
929 930 4
929 969 2
930 931 5
930 970 2
931 932 4
931 971 5
932 933 2
932 972 5
933 934 4
933 973 4
934 935 4
934 974 1
935 936 2
935 975 4
936 937 2
936 976 5
937 938 4
937 977 3
938 939 4
938 978 3
939 940 5
939 979 5
940 941 4
940 980 3
941 942 5
941 981 1
942 943 1
942 982 1
943 944 3
943 983 3
944 945 5
944 984 5
945 946 5
945 985 3
946 947 3
946 986 3
947 948 3
947 987 3
948 949 5
948 988 5
949 950 1
949 989 5
950 951 3
950 990 2
951 952 4
951 991 3
952 953 2
952 992 2
953 954 3
953 993 5
954 955 1
954 994 5
955 956 1
955 995 2
956 957 4
956 996 4
957 958 2
957 997 4
958 959 4
958 998 2
959 960 2
959 999 2
960 1000 5
961 962 5
961 1001 3
962 963 1
962 1002 5
963 964 1
963 1003 3
964 965 4
964 1004 2
965 966 1
965 1005 1
966 967 1
966 1006 4
967 968 3
967 1007 5
968 969 5
968 1008 5
969 970 2
969 1009 2
970 971 4
970 1010 4
971 972 5
971 1011 1
972 973 4
972 1012 3
973 974 4
973 1013 1
974 975 2
974 1014 1
975 976 2
975 1015 4
976 977 1
976 1016 3
977 978 3
977 1017 5
978 979 5
978 1018 1
979 980 3
979 1019 3
980 981 4
980 1020 3
981 982 1
981 1021 3
982 983 4
982 1022 5
983 984 2
983 1023 4
984 985 1
984 1024 2
985 986 5
985 1025 1
986 987 2
986 1026 5
987 988 1
987 1027 1
988 989 1
988 1028 3
989 990 3
989 1029 3
990 991 3
990 1030 1
991 992 4
991 1031 2
992 993 3
992 1032 1
993 994 4
993 1033 1
994 995 1
994 1034 1
995 996 1
995 1035 4
996 997 5
996 1036 5
997 998 5
997 1037 1
998 999 5
998 1038 5
999 1000 5
999 1039 4
1000 1040 2
1001 1002 3
1001 1041 2
1002 1003 4
1002 1042 5
1003 1004 2
1003 1043 1
1004 1005 1
1004 1044 5
1005 1006 5
1005 1045 1
1006 1007 4
1006 1046 3
1007 1008 1
1007 1047 4
1008 1009 4
1008 1048 5
1009 1010 4
1009 1049 5
1010 1011 3
1010 1050 4
1011 1012 5
1011 1051 1
1012 1013 2
1012 1052 2
1013 1014 4
1013 1053 3
1014 1015 4
1014 1054 3
1015 1016 2
1015 1055 4
1016 1017 5
1016 1056 4
1017 1018 1
1017 1057 4
1018 1019 4
1018 1058 4
1019 1020 3
1019 1059 2
1020 1021 4
1020 1060 2
1021 1022 3
1021 1061 2
1022 1023 5
1022 1062 2
1023 1024 2
1023 1063 3
1024 1025 2
1024 1064 3
1025 1026 3
1025 1065 1
1026 1027 2
1026 1066 4
1027 1028 5
1027 1067 3
1028 1029 1
1028 1068 2
1029 1030 3
1029 1069 4
1030 1031 2
1030 1070 1
1031 1032 2
1031 1071 1
1032 1033 5
1032 1072 4
1033 1034 1
1033 1073 3
1034 1035 1
1034 1074 3
1035 1036 3
1035 1075 1
1036 1037 1
1036 1076 2
1037 1038 3
1037 1077 5
1038 1039 2
1038 1078 2
1039 1040 2
1039 1079 4
1040 1080 4
1041 1042 4
1041 1081 5
1042 1043 1
1042 1082 3
1043 1044 3
1043 1083 3
1044 1045 1
1044 1084 3
1045 1046 4
1045 1085 3
1046 1047 1
1046 1086 2
1047 1048 4
1047 1087 1
1048 1049 3
1048 1088 2
1049 1050 3
1049 1089 2
1050 1051 2
1050 1090 3
1051 1052 2
1051 1091 2
1052 1053 2
1052 1092 1
1053 1054 3
1053 1093 5
1054 1055 5
1054 1094 2
1055 1056 3
1055 1095 2
1056 1057 1
1056 1096 3
1057 1058 5
1057 1097 3
1058 1059 5
1058 1098 5
1059 1060 2
1059 1099 2
1060 1061 3
1060 1100 3
1061 1062 2
1061 1101 4
1062 1063 5
1062 1102 2
1063 1064 1
1063 1103 4
1064 1065 5
1064 1104 3
1065 1066 3
1065 1105 1
1066 1067 1
1066 1106 4
1067 1068 5
1067 1107 4
1068 1069 3
1068 1108 1
1069 1070 3
1069 1109 4
1070 1071 5
1070 1110 3
1071 1072 1
1071 1111 2
1072 1073 5
1072 1112 3
1073 1074 3
1073 1113 5
1074 1075 5
1074 1114 3
1075 1076 5
1075 1115 1
1076 1077 5
1076 1116 3
1077 1078 2
1077 1117 4
1078 1079 4
1078 1118 4
1079 1080 2
1079 1119 4
1080 1120 4
1081 1082 5
1081 1121 1
1082 1083 5
1082 1122 2
1083 1084 4
1083 1123 1
1084 1085 1
1084 1124 2
1085 1086 2
1085 1125 1
1086 1087 3
1086 1126 4
1087 1088 5
1087 1127 4
1088 1089 2
1088 1128 1
1089 1090 5
1089 1129 5
1090 1091 5
1090 1130 5
1091 1092 3
1091 1131 1
1092 1093 2
1092 1132 1
1093 1094 1
1093 1133 2
1094 1095 2
1094 1134 4
1095 1096 2
1095 1135 4
1096 1097 4
1096 1136 4
1097 1098 3
1097 1137 2
1098 1099 4
1098 1138 2
1099 1100 1
1099 1139 3
1100 1101 5
1100 1140 4
1101 1102 4
1101 1141 1
1102 1103 1
1102 1142 4
1103 1104 1
1103 1143 5
1104 1105 4
1104 1144 3
1105 1106 3
1105 1145 4
1106 1107 3
1106 1146 1
1107 1108 3
1107 1147 4
1108 1109 1
1108 1148 3
1109 1110 3
1109 1149 2
1110 1111 5
1110 1150 5
1111 1112 5
1111 1151 3
1112 1113 4
1112 1152 5
1113 1114 5
1113 1153 5
1114 1115 2
1114 1154 3
1115 1116 2
1115 1155 2
1116 1117 5
1116 1156 2
1117 1118 1
1117 1157 3
1118 1119 5
1118 1158 4
1119 1120 4
1119 1159 4
1120 1160 3
1121 1122 2
1121 1161 3
1122 1123 3
1122 1162 2
1123 1124 5
1123 1163 5
1124 1125 5
1124 1164 1
1125 1126 2
1125 1165 4
1126 1127 3
1126 1166 2
1127 1128 3
1127 1167 4
1128 1129 4
1128 1168 2
1129 1130 1
1129 1169 1
1130 1131 4
1130 1170 3
1131 1132 3
1131 1171 1
1132 1133 3
1132 1172 4
1133 1134 3
1133 1173 3
1134 1135 3
1134 1174 1
1135 1136 3
1135 1175 5
1136 1137 2
1136 1176 4
1137 1138 5
1137 1177 1
1138 1139 4
1138 1178 2
1139 1140 5
1139 1179 3
1140 1141 5
1140 1180 4
1141 1142 2
1141 1181 4
1142 1143 2
1142 1182 5
1143 1144 5
1143 1183 4
1144 1145 2
1144 1184 4
1145 1146 3
1145 1185 2
1146 1147 4
1146 1186 1
1147 1148 2
1147 1187 2
1148 1149 1
1148 1188 3
1149 1150 4
1149 1189 3
1150 1151 1
1150 1190 5
1151 1152 1
1151 1191 3
1152 1153 4
1152 1192 2
1153 1154 3
1153 1193 4
1154 1155 2
1154 1194 5
1155 1156 2
1155 1195 5
1156 1157 3
1156 1196 1
1157 1158 4
1157 1197 1
1158 1159 4
1158 1198 5
1159 1160 4
1159 1199 5
1160 1200 3
1161 1162 5
1161 1201 1
1162 1163 1
1162 1202 5
1163 1164 2
1163 1203 5
1164 1165 2
1164 1204 5
1165 1166 3
1165 1205 1
1166 1167 3
1166 1206 4
1167 1168 4
1167 1207 4
1168 1169 2
1168 1208 2
1169 1170 5
1169 1209 4
1170 1171 4
1170 1210 5
1171 1172 3
1171 1211 3
1172 1173 3
1172 1212 4
1173 1174 1
1173 1213 3
1174 1175 3
1174 1214 4
1175 1176 5
1175 1215 2
1176 1177 5
1176 1216 4
1177 1178 2
1177 1217 3
1178 1179 2
1178 1218 3
1179 1180 3
1179 1219 3
1180 1181 1
1180 1220 4
1181 1182 4
1181 1221 1
1182 1183 3
1182 1222 4
1183 1184 1
1183 1223 5
1184 1185 3
1184 1224 1
1185 1186 4
1185 1225 2
1186 1187 3
1186 1226 1
1187 1188 4
1187 1227 4
1188 1189 5
1188 1228 1
1189 1190 4
1189 1229 3
1190 1191 5
1190 1230 1
1191 1192 5
1191 1231 5
1192 1193 3
1192 1232 2
1193 1194 3
1193 1233 2
1194 1195 3
1194 1234 1
1195 1196 4
1195 1235 5
1196 1197 5
1196 1236 2
1197 1198 4
1197 1237 2
1198 1199 3
1198 1238 5
1199 1200 2
1199 1239 4
1200 1240 4
1201 1202 4
1201 1241 2
1202 1203 3
1202 1242 2
1203 1204 5
1203 1243 2
1204 1205 4
1204 1244 1
1205 1206 3
1205 1245 4
1206 1207 3
1206 1246 2
1207 1208 5
1207 1247 3
1208 1209 5
1208 1248 3
1209 1210 3
1209 1249 4
1210 1211 3
1210 1250 1
1211 1212 1
1211 1251 3
1212 1213 2
1212 1252 2
1213 1214 2
1213 1253 3
1214 1215 4
1214 1254 5
1215 1216 3
1215 1255 2
1216 1217 4
1216 1256 4
1217 1218 4
1217 1257 4
1218 1219 2
1218 1258 1
1219 1220 2
1219 1259 3
1220 1221 1
1220 1260 3
1221 1222 4
1221 1261 5
1222 1223 3
1222 1262 2
1223 1224 2
1223 1263 4
1224 1225 2
1224 1264 1
1225 1226 4
1225 1265 4
1226 1227 2
1226 1266 3
1227 1228 1
1227 1267 1
1228 1229 3
1228 1268 5
1229 1230 2
1229 1269 2
1230 1231 5
1230 1270 2
1231 1232 5
1231 1271 1
1232 1233 2
1232 1272 4
1233 1234 2
1233 1273 3
1234 1235 3
1234 1274 3
1235 1236 4
1235 1275 2
1236 1237 3
1236 1276 3
1237 1238 5
1237 1277 1
1238 1239 1
1238 1278 2
1239 1240 3
1239 1279 3
1240 1280 4
1241 1242 3
1241 1281 2
1242 1243 3
1242 1282 1
1243 1244 1
1243 1283 3
1244 1245 3
1244 1284 3
1245 1246 5
1245 1285 1
1246 1247 2
1246 1286 3
1247 1248 4
1247 1287 2
1248 1249 1
1248 1288 2
1249 1250 1
1249 1289 3
1250 1251 3
1250 1290 4
1251 1252 1
1251 1291 2
1252 1253 2
1252 1292 4
1253 1254 3
1253 1293 1
1254 1255 2
1254 1294 1
1255 1256 1
1255 1295 1
1256 1257 5
1256 1296 3
1257 1258 3
1257 1297 4
1258 1259 3
1258 1298 3
1259 1260 4
1259 1299 4
1260 1261 2
1260 1300 2
1261 1262 4
1261 1301 4
1262 1263 2
1262 1302 5
1263 1264 1
1263 1303 3
1264 1265 5
1264 1304 5
1265 1266 3
1265 1305 4
1266 1267 3
1266 1306 2
1267 1268 2
1267 1307 3
1268 1269 3
1268 1308 1
1269 1270 4
1269 1309 2
1270 1271 3
1270 1310 1
1271 1272 3
1271 1311 5
1272 1273 5
1272 1312 4
1273 1274 2
1273 1313 2
1274 1275 3
1274 1314 5
1275 1276 4
1275 1315 4
1276 1277 3
1276 1316 3
1277 1278 2
1277 1317 1
1278 1279 4
1278 1318 4
1279 1280 4
1279 1319 3
1280 1320 5
1281 1282 4
1281 1321 3
1282 1283 2
1282 1322 5
1283 1284 1
1283 1323 1
1284 1285 4
1284 1324 5
1285 1286 5
1285 1325 3
1286 1287 2
1286 1326 3
1287 1288 5
1287 1327 2
1288 1289 4
1288 1328 3
1289 1290 5
1289 1329 4
1290 1291 5
1290 1330 4
1291 1292 4
1291 1331 3
1292 1293 4
1292 1332 1
1293 1294 2
1293 1333 5
1294 1295 2
1294 1334 4
1295 1296 5
1295 1335 4
1296 1297 3
1296 1336 5
1297 1298 5
1297 1337 3
1298 1299 3
1298 1338 3
1299 1300 5
1299 1339 2
1300 1301 2
1300 1340 1
1301 1302 2
1301 1341 4
1302 1303 1
1302 1342 5
1303 1304 2
1303 1343 5
1304 1305 2
1304 1344 2
1305 1306 2
1305 1345 2
1306 1307 5
1306 1346 2
1307 1308 5
1307 1347 2
1308 1309 3
1308 1348 2
1309 1310 3
1309 1349 3
1310 1311 1
1310 1350 3
1311 1312 2
1311 1351 1
1312 1313 4
1312 1352 5
1313 1314 2
1313 1353 2
1314 1315 1
1314 1354 4
1315 1316 5
1315 1355 4
1316 1317 2
1316 1356 4
1317 1318 1
1317 1357 1
1318 1319 1
1318 1358 1
1319 1320 4
1319 1359 2
1320 1360 4
1321 1322 2
1321 1361 2
1322 1323 5
1322 1362 3
1323 1324 2
1323 1363 1
1324 1325 5
1324 1364 1
1325 1326 4
1325 1365 1
1326 1327 1
1326 1366 5
1327 1328 3
1327 1367 4
1328 1329 3
1328 1368 1
1329 1330 4
1329 1369 1
1330 1331 1
1330 1370 3
1331 1332 4
1331 1371 3
1332 1333 1
1332 1372 3
1333 1334 4
1333 1373 4
1334 1335 3
1334 1374 5
1335 1336 1
1335 1375 4
1336 1337 4
1336 1376 4
1337 1338 4
1337 1377 1
1338 1339 2
1338 1378 1
1339 1340 4
1339 1379 4
1340 1341 1
1340 1380 5
1341 1342 2
1341 1381 3
1342 1343 1
1342 1382 4
1343 1344 2
1343 1383 3
1344 1345 1
1344 1384 5
1345 1346 1
1345 1385 5
1346 1347 1
1346 1386 2
1347 1348 1
1347 1387 3
1348 1349 5
1348 1388 1
1349 1350 2
1349 1389 3
1350 1351 1
1350 1390 1
1351 1352 5
1351 1391 3
1352 1353 4
1352 1392 1
1353 1354 5
1353 1393 3
1354 1355 1
1354 1394 4
1355 1356 5
1355 1395 2
1356 1357 1
1356 1396 5
1357 1358 1
1357 1397 1
1358 1359 2
1358 1398 2
1359 1360 4
1359 1399 4
1360 1400 4
1361 1362 5
1361 1401 1
1362 1363 3
1362 1402 2
1363 1364 4
1363 1403 5
1364 1365 5
1364 1404 4
1365 1366 1
1365 1405 2
1366 1367 4
1366 1406 4
1367 1368 4
1367 1407 4
1368 1369 1
1368 1408 2
1369 1370 3
1369 1409 4
1370 1371 2
1370 1410 4
1371 1372 3
1371 1411 5
1372 1373 3
1372 1412 5
1373 1374 1
1373 1413 1
1374 1375 5
1374 1414 3
1375 1376 1
1375 1415 4
1376 1377 2
1376 1416 4
1377 1378 3
1377 1417 2
1378 1379 4
1378 1418 4
1379 1380 3
1379 1419 2
1380 1381 4
1380 1420 2
1381 1382 3
1381 1421 2
1382 1383 3
1382 1422 4
1383 1384 5
1383 1423 5
1384 1385 3
1384 1424 2
1385 1386 5
1385 1425 1
1386 1387 3
1386 1426 5
1387 1388 4
1387 1427 4
1388 1389 1
1388 1428 3
1389 1390 3
1389 1429 4
1390 1391 4
1390 1430 5
1391 1392 1
1391 1431 2
1392 1393 2
1392 1432 3
1393 1394 4
1393 1433 2
1394 1395 5
1394 1434 3
1395 1396 4
1395 1435 1
1396 1397 5
1396 1436 3
1397 1398 3
1397 1437 4
1398 1399 3
1398 1438 3
1399 1400 5
1399 1439 5
1400 1440 4
1401 1402 2
1401 1441 3
1402 1403 2
1402 1442 4
1403 1404 5
1403 1443 2
1404 1405 2
1404 1444 3
1405 1406 4
1405 1445 3
1406 1407 2
1406 1446 3
1407 1408 2
1407 1447 4
1408 1409 3
1408 1448 1
1409 1410 1
1409 1449 1
1410 1411 5
1410 1450 5
1411 1412 1
1411 1451 2
1412 1413 5
1412 1452 3
1413 1414 5
1413 1453 1
1414 1415 5
1414 1454 5
1415 1416 1
1415 1455 5
1416 1417 1
1416 1456 2
1417 1418 4
1417 1457 4
1418 1419 4
1418 1458 5
1419 1420 1
1419 1459 2
1420 1421 5
1420 1460 5
1421 1422 1
1421 1461 3
1422 1423 4
1422 1462 2
1423 1424 4
1423 1463 2
1424 1425 4
1424 1464 4
1425 1426 3
1425 1465 2
1426 1427 3
1426 1466 3
1427 1428 4
1427 1467 1
1428 1429 5
1428 1468 3
1429 1430 1
1429 1469 2
1430 1431 2
1430 1470 4
1431 1432 5
1431 1471 4
1432 1433 2
1432 1472 4
1433 1434 5
1433 1473 4
1434 1435 5
1434 1474 1
1435 1436 4
1435 1475 3
1436 1437 5
1436 1476 1
1437 1438 3
1437 1477 5
1438 1439 2
1438 1478 2
1439 1440 3
1439 1479 3
1440 1480 5
1441 1442 3
1441 1481 4
1442 1443 2
1442 1482 2
1443 1444 1
1443 1483 1
1444 1445 2
1444 1484 4
1445 1446 5
1445 1485 3
1446 1447 5
1446 1486 2
1447 1448 1
1447 1487 1
1448 1449 5
1448 1488 1
1449 1450 3
1449 1489 2
1450 1451 2
1450 1490 2
1451 1452 2
1451 1491 1
1452 1453 3
1452 1492 5
1453 1454 4
1453 1493 3
1454 1455 2
1454 1494 1
1455 1456 1
1455 1495 1
1456 1457 5
1456 1496 1
1457 1458 5
1457 1497 3
1458 1459 4
1458 1498 2
1459 1460 4
1459 1499 3
1460 1461 5
1460 1500 1
1461 1462 1
1461 1501 2
1462 1463 4
1462 1502 2
1463 1464 3
1463 1503 4
1464 1465 1
1464 1504 5
1465 1466 4
1465 1505 2
1466 1467 4
1466 1506 3
1467 1468 3
1467 1507 2
1468 1469 2
1468 1508 1
1469 1470 4
1469 1509 3
1470 1471 2
1470 1510 3
1471 1472 3
1471 1511 5
1472 1473 1
1472 1512 5
1473 1474 4
1473 1513 1
1474 1475 2
1474 1514 1
1475 1476 4
1475 1515 3
1476 1477 2
1476 1516 2
1477 1478 1
1477 1517 4
1478 1479 1
1478 1518 5
1479 1480 2
1479 1519 3
1480 1520 4
1481 1482 2
1481 1521 1
1482 1483 2
1482 1522 1
1483 1484 1
1483 1523 1
1484 1485 2
1484 1524 2
1485 1486 4
1485 1525 2
1486 1487 2
1486 1526 2
1487 1488 5
1487 1527 5
1488 1489 5
1488 1528 3
1489 1490 1
1489 1529 5
1490 1491 3
1490 1530 1
1491 1492 3
1491 1531 5
1492 1493 3
1492 1532 4
1493 1494 2
1493 1533 4
1494 1495 4
1494 1534 4
1495 1496 5
1495 1535 5
1496 1497 2
1496 1536 1
1497 1498 3
1497 1537 3
1498 1499 5
1498 1538 1
1499 1500 1
1499 1539 1
1500 1501 1
1500 1540 4
1501 1502 1
1501 1541 1
1502 1503 5
1502 1542 1
1503 1504 3
1503 1543 4
1504 1505 1
1504 1544 3
1505 1506 3
1505 1545 4
1506 1507 4
1506 1546 4
1507 1508 1
1507 1547 4
1508 1509 4
1508 1548 2
1509 1510 4
1509 1549 3
1510 1511 3
1510 1550 4
1511 1512 2
1511 1551 1
1512 1513 3
1512 1552 1
1513 1514 4
1513 1553 4
1514 1515 2
1514 1554 4
1515 1516 4
1515 1555 1
1516 1517 1
1516 1556 5
1517 1518 3
1517 1557 2
1518 1519 1
1518 1558 1
1519 1520 2
1519 1559 4
1520 1560 5
1521 1522 2
1521 1561 3
1522 1523 4
1522 1562 4
1523 1524 5
1523 1563 1
1524 1525 1
1524 1564 3
1525 1526 2
1525 1565 4
1526 1527 2
1526 1566 1
1527 1528 1
1527 1567 1
1528 1529 3
1528 1568 3
1529 1530 5
1529 1569 5
1530 1531 1
1530 1570 2
1531 1532 3
1531 1571 4
1532 1533 1
1532 1572 3
1533 1534 4
1533 1573 5
1534 1535 1
1534 1574 2
1535 1536 1
1535 1575 5
1536 1537 3
1536 1576 3
1537 1538 2
1537 1577 5
1538 1539 5
1538 1578 2
1539 1540 2
1539 1579 3
1540 1541 5
1540 1580 3
1541 1542 3
1541 1581 5
1542 1543 4
1542 1582 2
1543 1544 2
1543 1583 1
1544 1545 2
1544 1584 4
1545 1546 5
1545 1585 3
1546 1547 2
1546 1586 4
1547 1548 1
1547 1587 2
1548 1549 2
1548 1588 4
1549 1550 1
1549 1589 1
1550 1551 5
1550 1590 1
1551 1552 4
1551 1591 3
1552 1553 5
1552 1592 3
1553 1554 5
1553 1593 1
1554 1555 1
1554 1594 5
1555 1556 1
1555 1595 3
1556 1557 3
1556 1596 3
1557 1558 2
1557 1597 1
1558 1559 3
1558 1598 3
1559 1560 3
1559 1599 5
1560 1600 1
1561 1562 2
1562 1563 3
1563 1564 1
1564 1565 3
1565 1566 5
1566 1567 5
1567 1568 2
1568 1569 3
1569 1570 1
1570 1571 5
1571 1572 4
1572 1573 4
1573 1574 4
1574 1575 4
1575 1576 3
1576 1577 3
1577 1578 4
1578 1579 3
1579 1580 1
1580 1581 4
1581 1582 1
1582 1583 3
1583 1584 1
1584 1585 1
1585 1586 3
1586 1587 4
1587 1588 1
1588 1589 3
1589 1590 2
1590 1591 5
1591 1592 5
1592 1593 1
1593 1594 4
1594 1595 1
1595 1596 3
1596 1597 4
1597 1598 1
1598 1599 2
1599 1600 4
